NAME: cum40.tsp
TYPE: TSP
COMMENT: User-generated TSP file
DIMENSION: 40
EDGE_WEIGHT_TYPE: EUC_2D
NODE_COORD_SECTION
1 3.0 28.0
2 3.0 12.0
3 2.0 22.0
4 32.0 13.0
5 20.0 9.0
6 29.0 35.0
7 35.0 24.0
8 25.0 24.0
9 11.0 10.0
10 21.0 32.0
11 27.0 5.0
12 38.0 10.0
13 7.0 23.0
14 18.0 8.0
15 20.0 22.0
16 9.0 30.0
17 37.0 38.0
18 32.0 29.0
19 13.0 15.0
20 24.0 32.0
21 31.0 22.0
22 34.0 5.0
23 8.0 29.0
24 13.0 6.0
25 27.0 22.0
26 8.0 29.0
27 2.0 36.0
28 37.0 6.0
29 13.0 4.0
30 3.0 3.0
31 21.0 10.0
32 30.0 34.0
33 7.0 30.0
34 10.0 39.0
35 27.0 40.0
36 37.0 3.0
37 35.0 12.0
38 8.0 22.0
39 23.0 5.0
40 25.0 19.0
EOF





